c FILE /home/rafael/Documents/HappySet/MIHS/inputs/happygen/output/graph_scale_free_k10_p0.4_v100_20241127_083917.txt
c SOURCE This is a scale-free graph formed for the happy graph colouring problem.
c DESCRIPTION It was generated using the problem generator of Rhyd Lewis
c
c GRAPH STATS
c Seed                             = -530369406
c Number of Nodes                  = 100
c Number of colours k              = 10
c Number of pre-assignments        = 40
c Number of links per new node     = 5
c Density                          = 0.0979798
c 
c The degrees of nodes 1 to 100, respectively, are as follows 
c [34, 27, 26, 26, 25, 24, 24, 22, 21, 21, 20, 18, 18, 18, 17, 16, 16, 15, 14, 14, 14, 13, 13, 12, 11, 11, 
c  11, 10, 10, 10, 10, 10, 9, 9, 9, 8, 8, 8, 8, 8, 8, 8, 8, 8, 7, 7, 7, 7, 7, 7, 7, 
c  7, 7, 7, 7, 6, 6, 6, 6, 6, 6, 6, 6, 6, 6, 6, 6, 6, 6, 6, 6, 6, 6, 5, 5, 5, 
c  5, 5, 5, 5, 5, 5, 5, 5, 5, 5, 5, 5, 5, 5, 5, 5, 5, 5, 5, 5, 5, 5, 5, 5] 
c  
p edge 100 485 10
e 1 2
e 1 3
e 1 4
e 1 5
e 1 6
e 1 7
e 1 8
e 1 9
e 1 11
e 1 12
e 1 15
e 1 16
e 1 18
e 1 25
e 1 28
e 1 33
e 1 34
e 1 36
e 1 41
e 1 42
e 1 45
e 1 49
e 1 51
e 1 55
e 1 57
e 1 59
e 1 62
e 1 71
e 1 74
e 1 75
e 1 80
e 1 87
e 1 89
e 1 92
e 2 3
e 2 7
e 2 10
e 2 13
e 2 17
e 2 19
e 2 20
e 2 25
e 2 29
e 2 33
e 2 35
e 2 39
e 2 40
e 2 43
e 2 48
e 2 50
e 2 54
e 2 56
e 2 58
e 2 61
e 2 66
e 2 72
e 2 78
e 2 81
e 2 86
e 2 92
e 3 5
e 3 6
e 3 7
e 3 9
e 3 14
e 3 15
e 3 17
e 3 18
e 3 19
e 3 20
e 3 21
e 3 26
e 3 28
e 3 29
e 3 36
e 3 38
e 3 48
e 3 49
e 3 56
e 3 57
e 3 61
e 3 70
e 3 85
e 3 100
e 4 8
e 4 9
e 4 10
e 4 12
e 4 16
e 4 21
e 4 23
e 4 29
e 4 30
e 4 31
e 4 43
e 4 44
e 4 45
e 4 46
e 4 57
e 4 62
e 4 64
e 4 65
e 4 71
e 4 74
e 4 79
e 4 80
e 4 81
e 4 89
e 4 96
e 5 6
e 5 7
e 5 8
e 5 9
e 5 10
e 5 11
e 5 12
e 5 21
e 5 22
e 5 27
e 5 28
e 5 30
e 5 33
e 5 37
e 5 38
e 5 42
e 5 51
e 5 54
e 5 63
e 5 76
e 5 87
e 5 98
e 5 100
e 6 7
e 6 8
e 6 9
e 6 10
e 6 11
e 6 16
e 6 17
e 6 20
e 6 22
e 6 34
e 6 36
e 6 42
e 6 44
e 6 45
e 6 48
e 6 58
e 6 64
e 6 66
e 6 70
e 6 82
e 6 91
e 7 8
e 7 9
e 7 12
e 7 14
e 7 15
e 7 17
e 7 22
e 7 23
e 7 26
e 7 39
e 7 41
e 7 47
e 7 56
e 7 75
e 7 82
e 7 85
e 7 89
e 7 98
e 7 99
e 8 9
e 8 10
e 8 11
e 8 13
e 8 15
e 8 18
e 8 24
e 8 28
e 8 32
e 8 36
e 8 41
e 8 45
e 8 53
e 8 63
e 8 65
e 8 79
e 8 89
e 9 11
e 9 13
e 9 15
e 9 17
e 9 20
e 9 21
e 9 25
e 9 47
e 9 51
e 9 56
e 9 61
e 9 70
e 9 80
e 9 95
e 10 11
e 10 13
e 10 21
e 10 22
e 10 28
e 10 33
e 10 41
e 10 48
e 10 49
e 10 53
e 10 60
e 10 67
e 10 73
e 10 84
e 10 92
e 10 94
e 11 12
e 11 13
e 11 19
e 11 27
e 11 28
e 11 32
e 11 35
e 11 40
e 11 44
e 11 46
e 11 59
e 11 76
e 11 83
e 11 84
e 12 13
e 12 15
e 12 22
e 12 24
e 12 30
e 12 46
e 12 59
e 12 74
e 12 77
e 12 85
e 12 91
e 12 93
e 12 95
e 13 16
e 13 23
e 13 25
e 13 30
e 13 37
e 13 51
e 13 55
e 13 60
e 13 68
e 13 70
e 13 78
e 13 88
e 14 17
e 14 22
e 14 37
e 14 39
e 14 44
e 14 46
e 14 55
e 14 59
e 14 65
e 14 75
e 14 76
e 14 78
e 14 85
e 14 92
e 14 96
e 14 97
e 15 16
e 15 18
e 15 19
e 15 23
e 15 25
e 15 26
e 15 32
e 15 45
e 15 53
e 15 58
e 15 99
e 16 19
e 16 26
e 16 33
e 16 35
e 16 37
e 16 40
e 16 50
e 16 57
e 16 67
e 16 69
e 16 78
e 17 24
e 17 30
e 17 34
e 17 37
e 17 61
e 17 76
e 17 79
e 17 86
e 17 94
e 17 96
e 18 24
e 18 27
e 18 36
e 18 38
e 18 45
e 18 57
e 18 66
e 18 72
e 18 73
e 18 88
e 18 99
e 19 29
e 19 31
e 19 34
e 19 35
e 19 41
e 19 62
e 19 63
e 19 64
e 19 74
e 20 22
e 20 23
e 20 26
e 20 32
e 20 38
e 20 50
e 20 76
e 20 79
e 20 83
e 20 100
e 21 40
e 21 47
e 21 48
e 21 50
e 21 52
e 21 58
e 21 77
e 21 88
e 21 89
e 22 46
e 22 47
e 22 50
e 22 51
e 22 68
e 22 74
e 23 60
e 23 84
e 23 88
e 23 90
e 23 91
e 23 94
e 23 97
e 23 98
e 24 33
e 24 40
e 24 52
e 24 71
e 24 72
e 24 73
e 24 83
e 24 86
e 25 29
e 25 43
e 25 63
e 25 75
e 25 77
e 25 95
e 26 31
e 26 37
e 26 39
e 26 71
e 26 90
e 26 97
e 27 37
e 27 56
e 27 62
e 27 75
e 27 80
e 27 87
e 27 93
e 27 94
e 28 32
e 28 38
e 28 56
e 28 60
e 29 43
e 29 52
e 29 53
e 29 58
e 29 78
e 30 31
e 30 39
e 30 63
e 30 69
e 30 73
e 31 41
e 31 54
e 31 66
e 31 85
e 31 90
e 31 99
e 32 64
e 32 77
e 32 84
e 32 95
e 32 99
e 33 53
e 33 91
e 33 93
e 34 36
e 34 49
e 34 67
e 34 68
e 34 82
e 35 36
e 35 81
e 35 86
e 35 88
e 35 98
e 36 68
e 37 47
e 38 43
e 38 52
e 38 67
e 39 59
e 39 61
e 39 69
e 40 52
e 40 84
e 40 87
e 41 55
e 41 82
e 42 47
e 42 49
e 42 54
e 42 80
e 42 94
e 43 65
e 43 73
e 43 92
e 44 51
e 44 71
e 44 86
e 44 100
e 45 60
e 46 81
e 46 90
e 47 72
e 48 54
e 48 93
e 49 59
e 49 82
e 50 62
e 50 83
e 51 81
e 52 66
e 52 70
e 53 69
e 53 97
e 54 68
e 54 72
e 55 65
e 55 93
e 55 100
e 57 77
e 58 83
e 60 64
e 61 67
e 62 65
e 63 79
e 64 90
e 66 98
e 67 69
e 68 87
e 69 95
e 70 96
e 71 91
e 72 97
e 73 96
n 5 4
n 18 3
n 23 7
n 24 3
n 25 1
n 26 4
n 29 1
n 35 4
n 41 9
n 44 6
n 45 3
n 47 9
n 48 2
n 49 5
n 56 8
n 57 3
n 59 5
n 61 10
n 64 3
n 65 3
n 66 3
n 67 10
n 68 4
n 70 3
n 73 3
n 74 10
n 75 1
n 76 4
n 78 1
n 79 5
n 80 7
n 81 4
n 83 3
n 84 7
n 85 2
n 87 4
n 92 7
n 95 1
n 96 3
n 99 3
